p tdp 27 54
1 2
1 13
1 18
1 27
2 8
2 12
2 24
3 22
3 23
3 24
3 27
4 8
4 17
4 21
4 26
5 10
5 12
5 15
5 18
6 15
6 20
6 22
6 25
7 10
7 16
7 22
7 26
8 10
8 11
9 12
9 16
9 21
9 27
10 13
11 14
11 18
11 20
12 22
13 17
13 23
14 15
14 19
14 21
15 16
16 17
17 19
18 25
19 25
19 27
20 24
20 26
21 24
23 25
23 26
